g3 1 1 0	# problem inst_sans_ref
 20 5 1 0 0	# vars, constraints, objectives, ranges, eqns
 5 1	# nonlinear constraints, objectives
 0 0	# network constraints: nonlinear, linear
 20 20 20	# nonlinear vars in constraints, objectives, both
 0 0 0 1	# linear network variables; functions; arith, flags
 0 0 0 0 0	# discrete variables: binary, integer, nonlinear (b,c,o)
 100 20	# nonzeros in Jacobian, gradients
 0 0	# max name lengths: constraints, variables
 0 0 0 0 0	# common exprs: b,c,o,c1,o1
b
0 0 20
0 0 20
0 0 20
0 0 20
0 0 20
0 0 20
0 0 20
0 0 20
0 0 20
0 0 20
0 0 20
0 0 20
0 0 20
0 0 20
0 0 20
0 0 20
0 0 20
0 0 20
0 0 20
0 0 20
r
1 16680
1 18160
1 16840
1 18880
1 22200
C0
o54
86
o2
o2
n2
v0
v11
o2
o2
n10
v0
v17
o2
o2
n6
v1
v3
o2
o2
n7
v1
v14
o2
o2
n4
v1
v15
o2
o2
n4
v1
v16
o2
o2
n10
v1
v17
o2
o2
n5
v1
v18
o2
v2
v3
o2
o2
n2
v2
v6
o2
o2
n7
v2
v7
o2
v2
v8
o2
o2
n2
v2
v11
o2
o2
n3
v2
v17
o2
v2
v18
o2
o2
n6
v3
v1
o2
v3
v2
o2
o2
n2
v3
v9
o2
o2
n2
v3
v16
o2
o2
n2
v4
v4
o2
o2
n7
v4
v12
o2
o2
n8
v4
v17
o2
o2
n9
v4
v18
o2
o2
n2
v5
v13
o2
o2
n2
v6
v2
o2
o2
n6
v6
v11
o2
o2
n7
v6
v18
o2
o2
n7
v7
v2
o2
o2
n6
v7
v12
o2
o2
n3
v7
v17
o2
o2
n3
v7
v19
o2
v8
v2
o2
o2
n4
v8
v17
o2
o2
n2
v9
v3
o2
o2
n2
v9
v9
o2
v9
v12
o2
o2
n7
v9
v15
o2
o2
n2
v9
v18
o2
o2
n7
v9
v19
o2
o2
n8
v10
v10
o2
o2
n5
v10
v12
o2
v10
v18
o2
o2
n2
v11
v0
o2
o2
n2
v11
v2
o2
o2
n6
v11
v6
o2
o2
n7
v11
v11
o2
o2
n8
v11
v18
o2
o2
n7
v12
v4
o2
o2
n6
v12
v7
o2
v12
v9
o2
o2
n5
v12
v10
o2
o2
n9
v12
v15
o2
o2
n10
v12
v19
o2
o2
n2
v13
v5
o2
o2
n6
v13
v17
o2
o2
n7
v14
v1
o2
o2
n5
v14
v17
o2
o2
n3
v14
v19
o2
o2
n4
v15
v1
o2
o2
n7
v15
v9
o2
o2
n9
v15
v12
o2
o2
n6
v15
v18
o2
o2
n4
v16
v1
o2
o2
n2
v16
v3
o2
o2
n10
v17
v0
o2
o2
n10
v17
v1
o2
o2
n3
v17
v2
o2
o2
n8
v17
v4
o2
o2
n3
v17
v7
o2
o2
n4
v17
v8
o2
o2
n6
v17
v13
o2
o2
n5
v17
v14
o2
o2
n5
v17
v18
o2
o2
n5
v18
v1
o2
v18
v2
o2
o2
n9
v18
v4
o2
o2
n7
v18
v6
o2
o2
n2
v18
v9
o2
v18
v10
o2
o2
n8
v18
v11
o2
o2
n6
v18
v15
o2
o2
n5
v18
v17
o2
o2
n3
v19
v7
o2
o2
n7
v19
v9
o2
o2
n10
v19
v12
o2
o2
n3
v19
v14
C1
o54
93
o2
o2
n3
v0
v2
o2
o2
n4
v0
v3
o2
v0
v6
o2
o2
n7
v0
v7
o2
o2
n3
v0
v10
o2
o2
n7
v0
v17
o2
o2
n6
v0
v19
o2
o2
n6
v1
v12
o2
o2
n3
v2
v0
o2
v2
v2
o2
v2
v3
o2
o2
n8
v2
v16
o2
o2
n4
v3
v0
o2
v3
v2
o2
v3
v7
o2
o2
n10
v3
v8
o2
o2
n6
v3
v11
o2
o2
n4
v3
v13
o2
o2
n8
v4
v5
o2
o2
n3
v4
v12
o2
o2
n3
v4
v13
o2
o2
n2
v4
v19
o2
o2
n8
v5
v4
o2
o2
n9
v5
v11
o2
o2
n6
v5
v15
o2
v6
v0
o2
o2
n5
v6
v10
o2
v6
v15
o2
o2
n5
v6
v16
o2
o2
n7
v7
v0
o2
v7
v3
o2
o2
n7
v7
v8
o2
o2
n8
v7
v10
o2
o2
n5
v7
v13
o2
v7
v14
o2
o2
n6
v7
v15
o2
o2
n9
v7
v17
o2
o2
n7
v7
v18
o2
o2
n10
v8
v3
o2
o2
n7
v8
v7
o2
o2
n3
v8
v8
o2
v8
v11
o2
o2
n2
v8
v16
o2
o2
n9
v8
v17
o2
o2
n3
v9
v11
o2
o2
n3
v9
v12
o2
o2
n3
v10
v0
o2
o2
n5
v10
v6
o2
o2
n8
v10
v7
o2
v10
v14
o2
o2
n5
v10
v18
o2
o2
n6
v11
v3
o2
o2
n9
v11
v5
o2
v11
v8
o2
o2
n3
v11
v9
o2
o2
n7
v11
v15
o2
o2
n6
v11
v18
o2
o2
n6
v12
v1
o2
o2
n3
v12
v4
o2
o2
n3
v12
v9
o2
o2
n4
v13
v3
o2
o2
n3
v13
v4
o2
o2
n5
v13
v7
o2
v14
v7
o2
v14
v10
o2
o2
n6
v14
v15
o2
o2
n6
v15
v5
o2
v15
v6
o2
o2
n6
v15
v7
o2
o2
n7
v15
v11
o2
o2
n6
v15
v14
o2
o2
n2
v15
v15
o2
v15
v16
o2
o2
n8
v16
v2
o2
o2
n5
v16
v6
o2
o2
n2
v16
v8
o2
v16
v15
o2
o2
n7
v16
v17
o2
o2
n10
v16
v19
o2
o2
n7
v17
v0
o2
o2
n9
v17
v7
o2
o2
n9
v17
v8
o2
o2
n7
v17
v16
o2
o2
n7
v17
v18
o2
o2
n7
v18
v7
o2
o2
n5
v18
v10
o2
o2
n6
v18
v11
o2
o2
n7
v18
v17
o2
o2
n4
v18
v19
o2
o2
n6
v19
v0
o2
o2
n2
v19
v4
o2
o2
n10
v19
v16
o2
o2
n4
v19
v18
C2
o54
92
o2
o2
n3
v0
v5
o2
o2
n5
v0
v10
o2
o2
n3
v0
v12
o2
o2
n2
v0
v13
o2
o2
n5
v0
v14
o2
o2
n9
v0
v15
o2
o2
n8
v0
v19
o2
o2
n5
v1
v9
o2
o2
n5
v1
v12
o2
o2
n5
v1
v14
o2
o2
n5
v1
v15
o2
o2
n10
v2
v5
o2
o2
n2
v2
v13
o2
o2
n6
v3
v6
o2
o2
n2
v3
v8
o2
o2
n7
v3
v12
o2
v3
v19
o2
v4
v4
o2
v4
v10
o2
o2
n3
v4
v12
o2
o2
n3
v5
v0
o2
o2
n10
v5
v2
o2
o2
n3
v5
v5
o2
o2
n6
v6
v3
o2
o2
n6
v6
v11
o2
o2
n9
v6
v12
o2
o2
n6
v6
v18
o2
o2
n4
v6
v19
o2
o2
n3
v7
v13
o2
o2
n2
v8
v3
o2
o2
n2
v8
v9
o2
o2
n4
v8
v12
o2
o2
n7
v8
v13
o2
o2
n4
v8
v15
o2
o2
n6
v8
v19
o2
o2
n5
v9
v1
o2
o2
n2
v9
v8
o2
o2
n6
v9
v9
o2
o2
n9
v9
v10
o2
v9
v14
o2
o2
n9
v9
v17
o2
v9
v18
o2
o2
n5
v10
v0
o2
v10
v4
o2
o2
n9
v10
v9
o2
o2
n3
v10
v10
o2
o2
n5
v10
v13
o2
o2
n3
v10
v14
o2
o2
n3
v10
v16
o2
o2
n6
v10
v17
o2
o2
n6
v11
v6
o2
v11
v12
o2
o2
n6
v11
v18
o2
o2
n3
v12
v0
o2
o2
n5
v12
v1
o2
o2
n7
v12
v3
o2
o2
n3
v12
v4
o2
o2
n9
v12
v6
o2
o2
n4
v12
v8
o2
v12
v11
o2
o2
n2
v13
v0
o2
o2
n2
v13
v2
o2
o2
n3
v13
v7
o2
o2
n7
v13
v8
o2
o2
n5
v13
v10
o2
v13
v13
o2
o2
n5
v14
v0
o2
o2
n5
v14
v1
o2
v14
v9
o2
o2
n3
v14
v10
o2
o2
n2
v14
v16
o2
o2
n9
v15
v0
o2
o2
n5
v15
v1
o2
o2
n4
v15
v8
o2
o2
n3
v15
v19
o2
o2
n3
v16
v10
o2
o2
n2
v16
v14
o2
o2
n7
v16
v16
o2
o2
n9
v17
v9
o2
o2
n6
v17
v10
o2
o2
n3
v17
v17
o2
o2
n9
v17
v18
o2
o2
n6
v18
v6
o2
v18
v9
o2
o2
n6
v18
v11
o2
o2
n9
v18
v17
o2
o2
n8
v19
v0
o2
v19
v3
o2
o2
n4
v19
v6
o2
o2
n6
v19
v8
o2
o2
n3
v19
v15
o2
o2
n5
v19
v19
C3
o54
103
o2
o2
n4
v0
v0
o2
o2
n7
v0
v2
o2
o2
n4
v0
v6
o2
o2
n7
v0
v12
o2
o2
n4
v0
v14
o2
o2
n3
v0
v17
o2
o2
n7
v1
v4
o2
o2
n8
v1
v7
o2
o2
n4
v1
v10
o2
v1
v13
o2
o2
n7
v2
v0
o2
o2
n5
v2
v2
o2
o2
n5
v2
v4
o2
o2
n2
v2
v13
o2
o2
n8
v2
v14
o2
o2
n4
v3
v5
o2
o2
n5
v3
v7
o2
o2
n9
v3
v9
o2
o2
n4
v3
v10
o2
o2
n2
v3
v13
o2
o2
n7
v4
v1
o2
o2
n5
v4
v2
o2
o2
n2
v4
v10
o2
o2
n5
v4
v11
o2
v4
v12
o2
v4
v13
o2
o2
n4
v5
v3
o2
o2
n3
v5
v6
o2
o2
n6
v5
v9
o2
o2
n4
v5
v12
o2
o2
n4
v5
v18
o2
o2
n4
v6
v0
o2
o2
n3
v6
v5
o2
o2
n8
v6
v9
o2
o2
n5
v6
v12
o2
o2
n8
v6
v19
o2
o2
n8
v7
v1
o2
o2
n5
v7
v3
o2
o2
n3
v7
v9
o2
v7
v10
o2
o2
n3
v7
v12
o2
o2
n8
v8
v9
o2
o2
n8
v8
v10
o2
o2
n8
v8
v11
o2
o2
n4
v8
v16
o2
o2
n2
v8
v17
o2
o2
n6
v8
v18
o2
o2
n9
v9
v3
o2
o2
n6
v9
v5
o2
o2
n8
v9
v6
o2
o2
n3
v9
v7
o2
o2
n8
v9
v8
o2
o2
n2
v9
v10
o2
o2
n4
v9
v13
o2
v9
v17
o2
o2
n8
v9
v19
o2
o2
n4
v10
v1
o2
o2
n4
v10
v3
o2
o2
n2
v10
v4
o2
v10
v7
o2
o2
n8
v10
v8
o2
o2
n2
v10
v9
o2
o2
n6
v10
v12
o2
o2
n7
v10
v14
o2
o2
n8
v10
v18
o2
o2
n5
v11
v4
o2
o2
n8
v11
v8
o2
v11
v17
o2
o2
n7
v12
v0
o2
v12
v4
o2
o2
n4
v12
v5
o2
o2
n5
v12
v6
o2
o2
n3
v12
v7
o2
o2
n6
v12
v10
o2
v12
v13
o2
o2
n4
v12
v18
o2
v13
v1
o2
o2
n2
v13
v2
o2
o2
n2
v13
v3
o2
v13
v4
o2
o2
n4
v13
v9
o2
v13
v12
o2
o2
n7
v13
v14
o2
o2
n4
v13
v15
o2
o2
n4
v14
v0
o2
o2
n8
v14
v2
o2
o2
n7
v14
v10
o2
o2
n7
v14
v13
o2
o2
n4
v15
v13
o2
o2
n3
v15
v15
o2
o2
n3
v15
v16
o2
o2
n4
v16
v8
o2
o2
n3
v16
v15
o2
o2
n3
v17
v0
o2
o2
n2
v17
v8
o2
v17
v9
o2
v17
v11
o2
o2
n4
v18
v5
o2
o2
n6
v18
v8
o2
o2
n8
v18
v10
o2
o2
n4
v18
v12
o2
o2
n8
v19
v6
o2
o2
n8
v19
v9
C4
o54
103
o2
o2
n4
v0
v2
o2
o2
n7
v0
v6
o2
o2
n5
v0
v13
o2
o2
n2
v0
v17
o2
o2
n5
v0
v19
o2
o2
n6
v1
v1
o2
o2
n6
v1
v3
o2
o2
n2
v1
v7
o2
o2
n5
v1
v9
o2
o2
n4
v1
v10
o2
v1
v14
o2
o2
n2
v1
v15
o2
o2
n4
v1
v18
o2
o2
n10
v1
v19
o2
o2
n4
v2
v0
o2
o2
n4
v2
v4
o2
o2
n8
v2
v5
o2
o2
n7
v2
v7
o2
o2
n4
v2
v8
o2
o2
n2
v2
v13
o2
v2
v19
o2
o2
n6
v3
v1
o2
o2
n6
v3
v4
o2
o2
n4
v4
v2
o2
o2
n6
v4
v3
o2
o2
n8
v4
v10
o2
o2
n6
v4
v11
o2
o2
n8
v5
v2
o2
o2
n9
v5
v5
o2
o2
n9
v5
v10
o2
o2
n5
v5
v12
o2
o2
n3
v5
v13
o2
o2
n5
v5
v15
o2
o2
n4
v5
v16
o2
o2
n7
v6
v0
o2
v6
v6
o2
o2
n6
v6
v7
o2
v6
v10
o2
o2
n8
v6
v14
o2
o2
n8
v6
v18
o2
o2
n2
v7
v1
o2
o2
n7
v7
v2
o2
o2
n6
v7
v6
o2
o2
n9
v7
v7
o2
o2
n4
v8
v2
o2
o2
n9
v8
v9
o2
o2
n2
v8
v13
o2
o2
n5
v8
v15
o2
o2
n2
v8
v16
o2
o2
n6
v8
v18
o2
o2
n5
v9
v1
o2
o2
n9
v9
v8
o2
o2
n3
v9
v9
o2
o2
n3
v9
v10
o2
o2
n5
v9
v12
o2
o2
n8
v9
v15
o2
o2
n4
v10
v1
o2
o2
n8
v10
v4
o2
o2
n9
v10
v5
o2
v10
v6
o2
o2
n3
v10
v9
o2
o2
n6
v10
v19
o2
o2
n6
v11
v4
o2
o2
n9
v11
v12
o2
o2
n8
v11
v17
o2
o2
n5
v12
v5
o2
o2
n5
v12
v9
o2
o2
n9
v12
v11
o2
o2
n4
v12
v14
o2
o2
n10
v12
v15
o2
o2
n8
v12
v17
o2
o2
n10
v12
v19
o2
o2
n5
v13
v0
o2
o2
n2
v13
v2
o2
o2
n3
v13
v5
o2
o2
n2
v13
v8
o2
o2
n7
v13
v18
o2
v14
v1
o2
o2
n8
v14
v6
o2
o2
n4
v14
v12
o2
o2
n2
v14
v14
o2
o2
n5
v14
v18
o2
o2
n2
v15
v1
o2
o2
n5
v15
v5
o2
o2
n5
v15
v8
o2
o2
n8
v15
v9
o2
o2
n10
v15
v12
o2
o2
n4
v16
v5
o2
o2
n2
v16
v8
o2
o2
n7
v16
v16
o2
o2
n2
v17
v0
o2
o2
n8
v17
v11
o2
o2
n8
v17
v12
o2
o2
n4
v18
v1
o2
o2
n8
v18
v6
o2
o2
n6
v18
v8
o2
o2
n7
v18
v13
o2
o2
n5
v18
v14
o2
o2
n5
v19
v0
o2
o2
n10
v19
v1
o2
v19
v2
o2
o2
n6
v19
v10
o2
o2
n10
v19
v12
O0 0
o54
253
o2
o2
n2
v0
v0
o2
o2
n4
v0
v1
o2
o2
n-3
v0
v2
o2
o2
n-2
v0
v3
o2
v0
v5
o2
o2
n-2
v0
v6
o2
o2
n-2
v0
v7
o2
o2
n-2
v0
v9
o2
v0
v11
o2
o2
n2
v0
v12
o2
o2
n-5
v0
v14
o16
o2
v0
v16
o2
o2
n3
v0
v17
o2
o2
n5
v0
v18
o2
o2
n4
v1
v0
o2
o2
n-3
v1
v1
o2
o2
n4
v1
v2
o2
o2
n-3
v1
v5
o2
v1
v6
o2
v1
v8
o2
o2
n4
v1
v9
o2
o2
n4
v1
v12
o2
v1
v13
o2
o2
n-3
v1
v14
o2
o2
n-2
v1
v17
o2
o2
n4
v1
v18
o2
o2
n5
v1
v19
o2
o2
n-3
v2
v0
o2
o2
n4
v2
v1
o2
o2
n4
v2
v2
o2
o2
n3
v2
v5
o2
v2
v6
o2
o2
n-4
v2
v7
o2
v2
v8
o2
o2
n-5
v2
v10
o2
o2
n-4
v2
v12
o2
o2
n-5
v2
v13
o2
v2
v14
o2
v2
v15
o2
o2
n4
v2
v17
o2
o2
n2
v2
v18
o2
o2
n2
v2
v19
o2
o2
n-2
v3
v0
o2
o2
n2
v3
v3
o2
o2
n-2
v3
v5
o2
v3
v6
o2
o2
n-3
v3
v7
o2
o2
n-2
v3
v8
o2
o2
n-3
v3
v10
o2
o2
n-2
v3
v13
o2
o2
n-3
v3
v14
o16
o2
v3
v15
o2
v3
v18
o2
o2
n3
v4
v5
o2
v4
v7
o2
o2
n4
v4
v8
o2
o2
n-5
v4
v10
o2
o2
n-5
v4
v11
o2
v4
v12
o2
o2
n-2
v4
v15
o2
o2
n-4
v4
v16
o16
o2
v4
v18
o2
o2
n2
v4
v19
o2
v5
v0
o2
o2
n-3
v5
v1
o2
o2
n3
v5
v2
o2
o2
n-2
v5
v3
o2
o2
n3
v5
v4
o2
o2
n-5
v5
v7
o2
o2
n3
v5
v8
o2
o2
n-4
v5
v10
o2
o2
n-2
v5
v11
o2
o2
n5
v5
v14
o2
o2
n3
v5
v16
o2
o2
n3
v5
v17
o2
o2
n-2
v6
v0
o2
v6
v1
o2
v6
v2
o2
v6
v3
o2
o2
n-5
v6
v7
o16
o2
v6
v9
o16
o2
v6
v10
o2
o2
n3
v6
v12
o2
o2
n3
v6
v14
o2
o2
n-3
v6
v15
o2
o2
n3
v6
v17
o16
o2
v6
v19
o2
o2
n-2
v7
v0
o2
o2
n-4
v7
v2
o2
o2
n-3
v7
v3
o2
v7
v4
o2
o2
n-5
v7
v5
o2
o2
n-5
v7
v6
o2
o2
n2
v7
v9
o2
o2
n3
v7
v10
o2
o2
n-3
v7
v11
o2
o2
n-4
v7
v14
o2
o2
n4
v7
v15
o2
o2
n-2
v7
v16
o2
o2
n2
v7
v17
o2
o2
n-4
v7
v18
o2
o2
n-4
v7
v19
o2
v8
v1
o2
v8
v2
o2
o2
n-2
v8
v3
o2
o2
n4
v8
v4
o2
o2
n3
v8
v5
o2
o2
n4
v8
v9
o16
o2
v8
v10
o16
o2
v8
v11
o2
o2
n4
v8
v12
o2
o2
n4
v8
v13
o2
o2
n3
v8
v15
o2
o2
n3
v8
v16
o2
o2
n2
v8
v17
o2
o2
n3
v8
v18
o2
o2
n4
v8
v19
o2
o2
n-2
v9
v0
o2
o2
n4
v9
v1
o16
o2
v9
v6
o2
o2
n2
v9
v7
o2
o2
n4
v9
v8
o2
o2
n2
v9
v10
o2
o2
n-2
v9
v14
o2
v9
v15
o2
o2
n-4
v9
v17
o2
o2
n3
v9
v18
o2
o2
n-5
v10
v2
o2
o2
n-3
v10
v3
o2
o2
n-5
v10
v4
o2
o2
n-4
v10
v5
o16
o2
v10
v6
o2
o2
n3
v10
v7
o16
o2
v10
v8
o2
o2
n2
v10
v9
o2
o2
n2
v10
v10
o2
v10
v11
o2
o2
n4
v10
v12
o2
v10
v13
o2
o2
n-2
v10
v14
o2
v10
v16
o2
o2
n2
v10
v17
o2
o2
n4
v10
v18
o2
o2
n-3
v10
v19
o2
v11
v0
o2
o2
n-5
v11
v4
o2
o2
n-2
v11
v5
o2
o2
n-3
v11
v7
o16
o2
v11
v8
o2
v11
v10
o2
o2
n-4
v11
v11
o2
o2
n5
v11
v15
o2
o2
n-4
v11
v16
o2
o2
n-5
v11
v19
o2
o2
n2
v12
v0
o2
o2
n4
v12
v1
o2
o2
n-4
v12
v2
o2
v12
v4
o2
o2
n3
v12
v6
o2
o2
n4
v12
v8
o2
o2
n4
v12
v10
o2
o2
n4
v12
v14
o16
o2
v12
v17
o2
o2
n-5
v12
v18
o2
v13
v1
o2
o2
n-5
v13
v2
o2
o2
n-2
v13
v3
o2
o2
n4
v13
v8
o2
v13
v10
o2
o2
n3
v13
v13
o2
v13
v14
o2
o2
n3
v13
v15
o16
o2
v13
v16
o2
o2
n4
v13
v17
o2
o2
n-2
v13
v18
o2
o2
n-5
v14
v0
o2
o2
n-3
v14
v1
o2
v14
v2
o2
o2
n-3
v14
v3
o2
o2
n5
v14
v5
o2
o2
n3
v14
v6
o2
o2
n-4
v14
v7
o2
o2
n-2
v14
v9
o2
o2
n-2
v14
v10
o2
o2
n4
v14
v12
o2
v14
v13
o2
o2
n-3
v14
v14
o2
o2
n3
v14
v18
o2
o2
n-2
v14
v19
o2
v15
v2
o16
o2
v15
v3
o2
o2
n-2
v15
v4
o2
o2
n-3
v15
v6
o2
o2
n4
v15
v7
o2
o2
n3
v15
v8
o2
v15
v9
o2
o2
n5
v15
v11
o2
o2
n3
v15
v13
o2
o2
n-3
v15
v15
o2
o2
n-5
v15
v16
o2
o2
n2
v15
v19
o16
o2
v16
v0
o2
o2
n-4
v16
v4
o2
o2
n3
v16
v5
o2
o2
n-2
v16
v7
o2
o2
n3
v16
v8
o2
v16
v10
o2
o2
n-4
v16
v11
o16
o2
v16
v13
o2
o2
n-5
v16
v15
o2
o2
n5
v16
v17
o2
o2
n4
v16
v18
o2
o2
n3
v17
v0
o2
o2
n-2
v17
v1
o2
o2
n4
v17
v2
o2
o2
n3
v17
v5
o2
o2
n3
v17
v6
o2
o2
n2
v17
v7
o2
o2
n2
v17
v8
o2
o2
n-4
v17
v9
o2
o2
n2
v17
v10
o16
o2
v17
v12
o2
o2
n4
v17
v13
o2
o2
n5
v17
v16
o2
o2
n-2
v17
v17
o2
o2
n-4
v17
v18
o2
o2
n5
v18
v0
o2
o2
n4
v18
v1
o2
o2
n2
v18
v2
o2
v18
v3
o16
o2
v18
v4
o2
o2
n-4
v18
v7
o2
o2
n3
v18
v8
o2
o2
n3
v18
v9
o2
o2
n4
v18
v10
o2
o2
n-5
v18
v12
o2
o2
n-2
v18
v13
o2
o2
n3
v18
v14
o2
o2
n4
v18
v16
o2
o2
n-4
v18
v17
o2
o2
n5
v18
v18
o2
o2
n-3
v18
v19
o2
o2
n5
v19
v1
o2
o2
n2
v19
v2
o2
o2
n2
v19
v4
o16
o2
v19
v6
o2
o2
n-4
v19
v7
o2
o2
n4
v19
v8
o2
o2
n-3
v19
v10
o2
o2
n-5
v19
v11
o2
o2
n-2
v19
v14
o2
o2
n2
v19
v15
o2
o2
n-3
v19
v18
k19
5
10
15
20
25
30
35
40
45
50
55
60
65
70
75
80
85
90
95
J0 20
0 0
1 0
2 0
3 0
4 0
5 0
6 0
7 0
8 0
9 0
10 0
11 0
12 0
13 0
14 0
15 0
16 0
17 0
18 0
19 0
J1 20
0 0
1 0
2 0
3 0
4 0
5 0
6 0
7 0
8 0
9 0
10 0
11 0
12 0
13 0
14 0
15 0
16 0
17 0
18 0
19 0
J2 20
0 0
1 0
2 0
3 0
4 0
5 0
6 0
7 0
8 0
9 0
10 0
11 0
12 0
13 0
14 0
15 0
16 0
17 0
18 0
19 0
J3 20
0 0
1 0
2 0
3 0
4 0
5 0
6 0
7 0
8 0
9 0
10 0
11 0
12 0
13 0
14 0
15 0
16 0
17 0
18 0
19 0
J4 20
0 0
1 0
2 0
3 0
4 0
5 0
6 0
7 0
8 0
9 0
10 0
11 0
12 0
13 0
14 0
15 0
16 0
17 0
18 0
19 0
G0 20
0 0
1 0
2 0
3 0
4 0
5 0
6 0
7 0
8 0
9 0
10 0
11 0
12 0
13 0
14 0
15 0
16 0
17 0
18 0
19 0
